(set-option :produce-models true)
(set-logic QF_UF)
(declare-fun p9() Bool)
(declare-fun p1() Bool)
(declare-fun p13() Bool)
(declare-fun p12() Bool)
(declare-fun p5() Bool)
(declare-fun p7() Bool)
(declare-fun p0() Bool)
(declare-fun p11() Bool)
(declare-fun p2() Bool)
(declare-fun p4() Bool)
(declare-fun p3() Bool)
(declare-fun p6() Bool)
(declare-fun p10() Bool)
(declare-fun p14() Bool)
(declare-fun p8() Bool)
(assert
(and (or p9 (not p1) p13) (or p1 (not p13) (not p12)) (or (not p13) p5 (not p7)) (or p0 p11 p9) (or (not p5) (not p11) (not p2)) (or (not p7) p1 (not p11)) (or (not p4) p2 p11) (or p3 p11 (not p11)) (or p6 (not p13) p9) (or p2 (not p0) (not p6)) (or (not p9) (not p4) p4) (or (not p0) (not p11) (not p4)) (or p3 (not p13) p3) (or (not p0) p13 (not p12)) (or (not p10) p14 (not p8)) (or (not p5) p5 (not p2)) (or p9 p14 (not p6)) (or p6 p3 (not p8)) (or (not p10) p11 p2) (or p7 (not p0) (not p9)) (or p14 p9 (not p2)) (or p9 p0 p1) (or p9 (not p0) (not p12)) (or (not p13) p14 p0) (or (not p14) p5 p2) (or (not p10) (not p8) (not p5)) (or (not p0) p5 (not p14)) (or (not p2) p1 p0) (or p0 (not p5) (not p0)) (or p3 (not p3) p10) (or (not p6) p9 p3) (or p5 (not p4) (not p6)) (or (not p4) p14 p2) (or p4 p11 (not p9)) (or p1 p7 (not p1)) (or (not p8) (not p11) (not p10)) (or (not p6) (not p9) p0) (or (not p2) (not p3) (not p2)) (or (not p7) p13 (not p5)) (or p11 (not p8) p13) (or (not p12) (not p9) (not p5)) (or (not p0) (not p14) (not p1)) (or (not p1) p12 p14) (or p1 (not p7) p3) (or p1 p4 (not p4)) (or p9 (not p4) p10) (or p0 p6 (not p3)) (or (not p5) (not p11) p1) (or (not p5) p5 p11) (or p0 p8 p5) (or p11 p4 p14) (or p9 (not p11) p10) (or p0 (not p0) p10) (or (not p3) p13 p10) (or (not p0) (not p11) p6) (or p3 p3 (not p12)) (or p9 p5 p0) (or (not p1) p14 p8) (or (not p9) (not p14) (not p7)) (or p5 (not p7) (not p0)) (or p5 (not p12) p9) (or p12 (not p2) (not p14)) (or p10 p6 (not p10)) (or (not p6) p10 p11) (or p12 p5 (not p11)) (or p3 p3 (not p2)) (or p11 p0 (not p3)) (or (not p9) p4 p8) (or (not p14) (not p9) p8))
)
(check-sat)
(get-model)
